40 327
1 2 4 5 10 12 15 16 18 19 21 22 23 25 26 30 31 32 34 35 36 37
0 5 9 15 17 18 23 26 27 28 29 33
0 4 5 10 12 24 25 30 32 33 35 38
8 9 11 12 13 16 17 23 24 27 28 29 30 31 34 37
0 2 6 7 11 12 13 14 16 17 20 21 22 23 24 25 26 28 29 30 32 33 35 36 38 39
0 1 2 6 8 9 11 14 18 19 20 21 22 31 32 34 36
4 5 7 8 10 12 14 16 17 22 23 25 26 28 29 30 31 33 36 39
4 6 8 12 13 14 15 23 25 28 29 30 31 35 36 39
3 5 6 7 9 11 14 15 16 17 20 22 29 30 35 36 37
1 3 5 8 20 21 28 29 30 34 35 37 39
0 2 6 11 17 19 21 22 23 26 29 30 34 37 39
3 4 5 8 10 15 17 19 23 30 38
0 2 3 4 6 7 13 18 19 20 22 24 26 28 32 34 35 36 38
3 4 7 12 15 19 22 23 24 25 26 28 31 32 33 38 39
4 5 6 7 8 15 16 18 19 24 28 29 34 35 39
0 1 7 8 11 13 14 17 21 22 27 28 29 32 34 36 37 38
0 3 4 6 8 14 17 21 23 27 30 31 33 34 37 38
1 3 4 6 8 10 11 15 16 20 21 25 28 29 30 35 39
0 1 5 12 14 19 20 21 23 26 28 33 36 39
0 5 10 11 12 13 14 18 20 21 23 25 26 28 29 34 36 39
4 5 8 9 12 17 18 19 21 22 24 25 26 31 34 37 39
0 4 5 9 10 15 16 17 18 19 20 22 23 28 29 30 31 32 34 35 39
0 4 5 6 8 10 12 13 15 20 21 23 25 27 30 32 33 34 36 37 38 39
0 1 3 4 6 7 10 11 13 16 18 19 21 22 24 32 34 35 38
2 3 4 12 13 14 20 23 25 26 38 39
0 2 4 6 7 13 17 19 20 22 24 35
0 1 4 6 10 12 13 18 19 20 24 27 30 31 32 35
1 3 15 16 22 26 28 31 32 37 38
1 3 4 6 7 9 12 13 14 15 17 18 19 21 27 30 33
1 3 4 6 7 8 9 10 14 15 17 19 21 30 34 38 39
0 2 3 4 6 7 8 9 10 11 16 17 21 22 26 28 29 31 33
0 3 5 6 7 13 16 20 21 26 27 30 32 35 39
0 2 4 5 12 13 15 21 22 23 26 27 31 33 34
1 2 4 6 13 16 18 22 28 30 32 35 36 39
0 3 5 9 10 12 14 15 16 19 20 21 22 23 29 32 35 36 39
0 2 4 7 8 9 12 14 17 21 23 25 26 31 33 34 39
0 4 5 6 7 8 12 15 18 19 22 33 34 37
0 3 8 9 10 15 16 20 22 27 36 38
2 4 11 12 13 15 16 22 23 24 27 29 37 39
4 6 7 9 10 13 14 17 18 19 20 21 22 24 29 31 33 34 35 38
